10 45
1 2 19
1 3 24
1 4 8
1 5 24
1 6 16
1 7 5
1 8 24
1 9 25
1 10 13
2 3 17
2 4 2
2 5 10
2 6 1
2 7 14
2 8 10
2 9 17
2 10 4
3 4 22
3 5 19
3 6 15
3 7 15
3 8 19
3 9 26
3 10 0
4 5 21
4 6 19
4 7 12
4 8 29
4 9 3
4 10 26
5 6 22
5 7 12
5 8 7
5 9 29
5 10 2
6 7 7
6 8 27
6 9 8
6 10 21
7 8 23
7 9 1
7 10 2
8 9 15
8 10 16
9 10 3
